SECTION Graph
Nodes 286
Edges 465
E 1 2 5
E 2 3 5
E 3 4 5
E 4 5 5
E 6 7 5
E 7 8 5
E 8 9 5
E 9 10 5
E 11 12 5
E 12 13 5
E 13 14 5
E 14 15 5
E 15 16 5
E 16 17 5
E 17 18 5
E 18 19 5
E 19 20 5
E 20 21 5
E 21 22 5
E 22 23 5
E 23 24 5
E 24 25 5
E 25 26 5
E 26 27 5
E 1 28 13
E 2 29 13
E 3 30 13
E 4 31 13
E 5 32 13
E 6 34 13
E 7 35 13
E 8 36 13
E 10 37 13
E 11 39 13
E 13 40 13
E 14 41 13
E 15 42 13
E 16 43 13
E 17 44 13
E 18 45 13
E 19 46 13
E 20 47 13
E 21 48 13
E 22 49 13
E 23 50 13
E 24 51 13
E 25 52 13
E 26 53 13
E 27 54 13
E 28 29 5
E 29 30 5
E 30 31 5
E 31 32 5
E 32 33 5
E 33 34 5
E 34 35 5
E 35 36 5
E 37 38 5
E 38 39 5
E 40 41 5
E 41 42 5
E 42 43 5
E 43 44 5
E 44 45 5
E 45 46 5
E 46 47 5
E 47 48 5
E 48 49 5
E 49 50 5
E 50 51 5
E 51 52 5
E 52 53 5
E 53 54 5
E 28 55 13
E 29 56 13
E 30 57 13
E 31 58 13
E 32 59 13
E 33 60 13
E 34 61 13
E 36 62 13
E 37 63 13
E 38 64 13
E 39 65 13
E 40 66 13
E 41 67 13
E 42 68 13
E 43 69 13
E 44 70 13
E 45 71 13
E 46 72 13
E 47 73 13
E 48 74 13
E 49 75 13
E 50 76 13
E 52 77 13
E 53 78 13
E 54 79 13
E 55 56 5
E 56 57 5
E 57 58 5
E 58 59 5
E 59 60 5
E 60 61 5
E 63 64 5
E 64 65 5
E 66 67 5
E 67 68 5
E 68 69 5
E 69 70 5
E 70 71 5
E 71 72 5
E 72 73 5
E 73 74 5
E 74 75 5
E 75 76 5
E 77 78 5
E 78 79 5
E 55 80 13
E 56 81 13
E 57 82 13
E 58 83 13
E 59 84 13
E 61 85 13
E 62 86 13
E 63 88 13
E 64 89 13
E 65 90 13
E 66 92 13
E 67 93 13
E 69 94 13
E 70 95 13
E 71 96 13
E 73 97 13
E 74 98 13
E 75 99 13
E 76 100 13
E 77 101 13
E 78 102 13
E 79 103 13
E 80 81 5
E 81 82 5
E 82 83 5
E 83 84 5
E 86 87 5
E 87 88 5
E 88 89 5
E 89 90 5
E 90 91 5
E 91 92 5
E 92 93 5
E 94 95 5
E 95 96 5
E 97 98 5
E 98 99 5
E 99 100 5
E 101 102 5
E 102 103 5
E 80 104 13
E 82 105 13
E 83 106 13
E 84 107 13
E 85 108 13
E 86 110 13
E 87 111 13
E 88 112 13
E 89 113 13
E 90 114 13
E 91 115 13
E 92 116 13
E 93 117 13
E 94 118 13
E 95 119 13
E 96 120 13
E 97 121 13
E 98 122 13
E 99 123 13
E 100 124 13
E 101 126 13
E 103 127 13
E 105 106 5
E 106 107 5
E 108 109 5
E 109 110 5
E 110 111 5
E 111 112 5
E 112 113 5
E 113 114 5
E 114 115 5
E 115 116 5
E 116 117 5
E 118 119 5
E 119 120 5
E 121 122 5
E 122 123 5
E 123 124 5
E 124 125 5
E 125 126 5
E 104 128 13
E 105 129 13
E 106 130 13
E 107 131 13
E 108 133 13
E 109 134 13
E 110 135 13
E 111 136 13
E 112 137 13
E 113 138 13
E 114 139 13
E 115 140 13
E 117 141 13
E 118 143 13
E 120 144 13
E 121 146 13
E 123 147 13
E 124 148 13
E 125 149 13
E 126 150 13
E 127 151 13
E 129 130 5
E 130 131 5
E 131 132 5
E 132 133 5
E 133 134 5
E 134 135 5
E 135 136 5
E 136 137 5
E 137 138 5
E 138 139 5
E 139 140 5
E 141 142 5
E 142 143 5
E 144 145 5
E 145 146 5
E 147 148 5
E 148 149 5
E 149 150 5
E 128 152 13
E 129 154 13
E 130 155 13
E 131 156 13
E 132 157 13
E 133 158 13
E 134 159 13
E 136 160 13
E 137 161 13
E 138 162 13
E 139 163 13
E 140 164 13
E 141 165 13
E 142 166 13
E 143 167 13
E 144 168 13
E 145 169 13
E 146 170 13
E 147 171 13
E 148 172 13
E 150 173 13
E 151 175 13
E 152 153 5
E 153 154 5
E 154 155 5
E 155 156 5
E 156 157 5
E 157 158 5
E 158 159 5
E 160 161 5
E 161 162 5
E 162 163 5
E 163 164 5
E 165 166 5
E 166 167 5
E 168 169 5
E 169 170 5
E 171 172 5
E 173 174 5
E 174 175 5
E 152 176 13
E 153 177 13
E 154 178 13
E 155 179 13
E 156 180 13
E 157 181 13
E 158 182 13
E 159 183 13
E 160 184 13
E 161 185 13
E 162 186 13
E 163 187 13
E 164 188 13
E 165 190 13
E 167 191 13
E 168 193 13
E 169 194 13
E 170 195 13
E 171 197 13
E 172 198 13
E 173 199 13
E 174 200 13
E 175 201 13
E 176 177 5
E 177 178 5
E 178 179 5
E 179 180 5
E 180 181 5
E 181 182 5
E 182 183 5
E 184 185 5
E 185 186 5
E 186 187 5
E 187 188 5
E 188 189 5
E 189 190 5
E 191 192 5
E 192 193 5
E 193 194 5
E 194 195 5
E 195 196 5
E 196 197 5
E 197 198 5
E 199 200 5
E 200 201 5
E 176 202 13
E 177 203 13
E 178 204 13
E 179 205 13
E 180 206 13
E 181 207 13
E 182 208 13
E 183 209 13
E 184 211 13
E 185 212 13
E 186 213 13
E 187 214 13
E 188 215 13
E 189 216 13
E 190 217 13
E 191 218 13
E 192 219 13
E 193 220 13
E 195 221 13
E 196 222 13
E 197 223 13
E 198 224 13
E 199 226 13
E 201 227 13
E 202 203 5
E 203 204 5
E 204 205 5
E 205 206 5
E 206 207 5
E 207 208 5
E 208 209 5
E 209 210 5
E 210 211 5
E 211 212 5
E 212 213 5
E 213 214 5
E 214 215 5
E 215 216 5
E 216 217 5
E 218 219 5
E 219 220 5
E 221 222 5
E 222 223 5
E 223 224 5
E 224 225 5
E 225 226 5
E 202 228 13
E 203 229 13
E 204 230 13
E 205 231 13
E 206 232 13
E 207 233 13
E 208 234 13
E 209 235 13
E 210 236 13
E 211 237 13
E 212 238 13
E 213 239 13
E 214 240 13
E 215 241 13
E 217 242 13
E 218 244 13
E 220 245 13
E 221 246 13
E 223 247 13
E 224 248 13
E 225 249 13
E 226 250 13
E 227 251 13
E 228 229 5
E 229 230 5
E 230 231 5
E 231 232 5
E 232 233 5
E 233 234 5
E 234 235 5
E 235 236 5
E 236 237 5
E 237 238 5
E 238 239 5
E 239 240 5
E 240 241 5
E 242 243 5
E 243 244 5
E 247 248 5
E 248 249 5
E 249 250 5
E 228 252 13
E 238 253 13
E 239 254 13
E 240 255 13
E 241 256 13
E 242 257 13
E 243 258 13
E 244 259 13
E 245 260 13
E 246 262 13
E 247 263 13
E 248 264 13
E 250 265 13
E 251 267 13
E 253 254 5
E 254 255 5
E 255 256 5
E 257 258 5
E 258 259 5
E 260 261 5
E 261 262 5
E 263 264 5
E 265 266 5
E 266 267 5
E 252 268 13
E 253 269 13
E 254 270 13
E 255 271 13
E 256 272 13
E 257 274 13
E 258 275 13
E 259 276 13
E 260 278 13
E 261 279 13
E 262 280 13
E 263 282 13
E 264 283 13
E 265 284 13
E 266 285 13
E 267 286 13
E 269 270 5
E 270 271 5
E 271 272 5
E 272 273 5
E 273 274 5
E 274 275 5
E 275 276 5
E 276 277 5
E 277 278 5
E 278 279 5
E 279 280 5
E 280 281 5
E 281 282 5
E 282 283 5
E 284 285 5
E 285 286 5
END

SECTION Terminals
Terminals 10
T 11
T 56
T 80
T 101
T 115
T 118
T 121
T 165
T 199
T 218
END

EOF
